c parsing input formula with 128 variables and 129 clauses
c WARNING: backward mode ignores deletion of (pseudo) unit clause [-1879044557] -128 0
c finished parsing
c UNSAT via unit propagation on the input instance
c 129 of 129 clauses in core                            
c 1 of 129 lemmas in core using 129 resolution steps
c 0 RAT lemmas in core; 0 redundant literals in core lemmas
s VERIFIED
c verification time: 0.071 seconds
